unsat
(define-fun str_invariant ((top.usr.e_s1 Bool) (top.usr.e_s2 Bool) (top.usr.e_s3 Bool) (top.usr.init_invalid_s Int) (top.usr.OK Bool) (top.res.init_flag Bool) (top.res.abs_0 Int) (top.res.abs_1 Int) (top.res.abs_2 Int) (top.res.abs_3 Int) (top.res.abs_4 Bool) (top.res.abs_5 Bool) (top.res.abs_6 Bool) (top.res.inst_2 Bool) (top.res.inst_1 Bool) (top.res.inst_0 Bool)) Bool (and top.usr.OK (not (>= top.res.abs_2 2))))
0.09user 0.00system 0:00.10elapsed 99%CPU (0avgtext+0avgdata 27976maxresident)k
0inputs+8outputs (0major+1742minor)pagefaults 0swaps
